decision_x1=[0,4];
decision_x2=[0,4];
decision_x3=[0,4];
decision_x4=[0,4];
decision_x5=[0,4];
decision_x6=[0,4];
decision_x7=[0,4];
decision_x8=[0,4];
random_y1=[0,4];
random_y2=[0,4];
random_y3=[0,4];
random_y4=[0,4];
constraint_x2_x1=[
0,1,3.2|
0,2,9.9|
0,3,4.6|
0,4,1.9|
1,0,9.1|
1,2,5.4|
1,3,0.43|
1,4,7.5|
2,0,0.73|
2,1,1.3|
2,3,9.8|
2,4,9.2|
3,0,3.7|
3,1,3.9|
3,2,2.6|
3,4,3.7|
4,0,9.4|
4,1,8.7|
4,2,2.2|
4,3,5.6|
];
constraint_x4_x1=[
0,1,0.88|
0,2,6.2|
0,3,7.8|
0,4,8.1|
1,0,3.2|
1,2,8.6|
1,3,7.1|
1,4,4.9|
2,0,6.5|
2,1,8.6|
2,3,8.9|
2,4,1.9|
3,0,0.06|
3,1,1.9|
3,2,3.4|
3,4,4.7|
4,0,3.6|
4,1,1.4|
4,2,6.9|
4,3,2.7|
];
constraint_x5_x1=[
0,1,7.3|
0,2,9.6|
0,3,0.54|
0,4,8.6|
1,0,4.8|
1,2,7.5|
1,3,8.2|
1,4,2.7|
2,0,3.5|
2,1,4.7|
2,3,2|
2,4,5.7|
3,0,4.7|
3,1,6.9|
3,2,0.27|
3,4,1.1|
4,0,9.1|
4,1,9.5|
4,2,10|
4,3,4.8|
];
constraint_x5_x3=[
0,1,6.5|
0,2,6.7|
0,3,7.4|
0,4,2.1|
1,0,9.7|
1,2,3|
1,3,2.7|
1,4,6.4|
2,0,0.21|
2,1,8.2|
2,3,4.8|
2,4,7.6|
3,0,1.9|
3,1,6.2|
3,2,8.3|
3,4,2.1|
4,0,2|
4,1,5.1|
4,2,8.2|
4,3,3.1|
];
constraint_x6_x1=[
0,1,4.5|
0,2,6.5|
0,3,5.8|
0,4,4.6|
1,0,9.2|
1,2,0.35|
1,3,1.1|
1,4,9.7|
2,0,0.87|
2,1,6.3|
2,3,7.5|
2,4,5.2|
3,0,1.2|
3,1,1.2|
3,2,7.5|
3,4,1.7|
4,0,2.3|
4,1,7.3|
4,2,8.7|
4,3,4.3|
];
constraint_x6_x3=[
0,1,7|
0,2,3.8|
0,3,3.3|
0,4,6.9|
1,0,9.2|
1,2,2.4|
1,3,6.1|
1,4,6.8|
2,0,8.8|
2,1,0.32|
2,3,1.9|
2,4,9.9|
3,0,6.8|
3,1,5|
3,2,9.1|
3,4,7.8|
4,0,5.2|
4,1,1.7|
4,2,2.1|
4,3,9|
];
constraint_x7_x4=[
0,1,2.5|
0,2,7.5|
0,3,9.2|
0,4,9.7|
1,0,8.5|
1,2,7.1|
1,3,9.8|
1,4,7.7|
2,0,2.1|
2,1,3.4|
2,3,8|
2,4,9.3|
3,0,2.2|
3,1,8.7|
3,2,0.21|
3,4,9.5|
4,0,0.48|
4,1,6.1|
4,2,4.6|
4,3,6|
];
constraint_x7_x6=[
0,1,0.53|
0,2,1.6|
0,3,6.9|
0,4,3.2|
1,0,3.6|
1,2,9.3|
1,3,8.2|
1,4,5.3|
2,0,5|
2,1,2.7|
2,3,5.6|
2,4,0.75|
3,0,1.9|
3,1,1.6|
3,2,8.5|
3,4,1.8|
4,0,7.4|
4,1,2.1|
4,2,4.6|
4,3,9.8|
];
constraint_x8_x1=[
0,1,0.35|
0,2,7.5|
0,3,4.6|
0,4,8.7|
1,0,4.3|
1,2,1.9|
1,3,8.6|
1,4,3.1|
2,0,5.7|
2,1,8.2|
2,3,9.2|
2,4,6|
3,0,2.7|
3,1,6.6|
3,2,7.9|
3,4,0.96|
4,0,0.068|
4,1,7.3|
4,2,6.7|
4,3,3.5|
];
constraint_x8_x2=[
0,1,4|
0,2,6.6|
0,3,2.4|
0,4,0.87|
1,0,5.7|
1,2,2.1|
1,3,2.2|
1,4,0.49|
2,0,0.56|
2,1,7.1|
2,3,6.4|
2,4,5|
3,0,9.4|
3,1,9.8|
3,2,3.8|
3,4,0.84|
4,0,7.9|
4,1,9.3|
4,2,5.7|
4,3,7.1|
];
constraint_x8_x3=[
0,1,1.8|
0,2,0.21|
0,3,4.8|
0,4,1.1|
1,0,8.1|
1,2,4.3|
1,3,9.3|
1,4,6.4|
2,0,9.9|
2,1,0.63|
2,3,1.3|
2,4,5.6|
3,0,7.4|
3,1,7.7|
3,2,1.1|
3,4,5.9|
4,0,5.8|
4,1,5.4|
4,2,7.4|
4,3,8.6|
];
constraint_x8_x4=[
0,1,5.5|
0,2,2.2|
0,3,8.6|
0,4,9|
1,0,9.7|
1,2,3.2|
1,3,8.9|
1,4,9.3|
2,0,6.4|
2,1,5.1|
2,3,1.8|
2,4,5.4|
3,0,4.1|
3,1,9.7|
3,2,6.6|
3,4,4.3|
4,0,4.5|
4,1,1.5|
4,2,4.8|
4,3,3.6|
];
constraint_x8_x6=[
0,1,6.7|
0,2,1.6|
0,3,8.4|
0,4,4.2|
1,0,9.8|
1,2,3.3|
1,3,7.8|
1,4,8.4|
2,0,8.1|
2,1,1.3|
2,3,8.1|
2,4,2.5|
3,0,8.1|
3,1,10|
3,2,7.9|
3,4,6.4|
4,0,7|
4,1,2.2|
4,2,5.7|
4,3,2.9|
];
constraint_x8_x7=[
0,1,3.1|
0,2,1.1|
0,3,3.6|
0,4,4.8|
1,0,1.4|
1,2,0.25|
1,3,6.3|
1,4,0.97|
2,0,8.3|
2,1,0.49|
2,3,2.3|
2,4,1.7|
3,0,7.7|
3,1,2.9|
3,2,5.2|
3,4,8.2|
4,0,0.52|
4,1,5|
4,2,7.1|
4,3,4.9|
];
constraint_x1_y1=[
0,0,8.5|
0,1,5|
0,2,9.3|
0,3,9.9|
0,4,5.1|
1,0,6.1|
1,1,9.6|
1,2,7.8|
1,3,6.8|
1,4,7.8|
2,0,6.2|
2,1,0.4|
2,2,1.9|
2,3,4.3|
2,4,5.2|
3,0,8.1|
3,1,5.7|
3,2,4|
3,3,2.4|
3,4,8.5|
4,0,6.7|
4,1,3|
4,2,8.7|
4,3,2.7|
4,4,1.6|
];
constraint_x2_y2=[
0,0,7.4|
0,1,1.6|
0,2,2.1|
0,3,3.1|
0,4,9.5|
1,0,3.3|
1,1,2.4|
1,2,0.28|
1,3,0.81|
1,4,0.62|
2,0,6.4|
2,1,9.3|
2,2,3|
2,3,2|
2,4,9.5|
3,0,7.2|
3,1,2.2|
3,2,5.9|
3,3,7|
3,4,4|
4,0,5.2|
4,1,6.8|
4,2,5.4|
4,3,8.3|
4,4,9.7|
];
constraint_x3_y3=[
0,0,7.1|
0,1,1.2|
0,2,7.4|
0,3,9.3|
0,4,2.6|
1,0,5|
1,1,1.4|
1,2,2.6|
1,3,2.5|
1,4,3.2|
2,0,4.6|
2,1,3|
2,2,6.6|
2,3,1.2|
2,4,8.3|
3,0,2.2|
3,1,6.9|
3,2,0.6|
3,3,7.3|
3,4,2.1|
4,0,9.3|
4,1,0.11|
4,2,2.6|
4,3,6.6|
4,4,3.1|
];
constraint_x4_y4=[
0,0,9.1|
0,1,5.9|
0,2,9.1|
0,3,9.9|
0,4,5.2|
1,0,8.3|
1,1,0.2|
1,2,3.3|
1,3,6.3|
1,4,9.7|
2,0,1.9|
2,1,5.1|
2,2,4.1|
2,3,6.5|
2,4,6.3|
3,0,6.8|
3,1,4.6|
3,2,3|
3,3,3.6|
3,4,0.28|
4,0,2.9|
4,1,1.2|
4,2,2.3|
4,3,6.9|
4,4,5|
];
initial_distribution_y1=[0.37,0.21,0.12,0.089,0.22];
initial_distribution_y2=[0.24,0.31,0.14,0.29,0.021];
initial_distribution_y3=[0.17,0.26,0.29,0.18,0.1];
initial_distribution_y4=[0.12,0.15,0.28,0.28,0.17];
transition_y1=[
0.067,0.087,0.032,0.4,0.41|
0.16,0.38,0.058,0.31,0.091|
0.3,0.015,0.044,0.34,0.3|
0.053,0.18,0.55,0.018,0.2|
0.15,0.22,0.29,0.25,0.093|
];
transition_y2=[
0.25,0.13,0.26,0.2,0.16|
0.31,0.34,0.1,0.015,0.23|
0.059,0.21,0.047,0.42,0.27|
0.23,0.19,0.19,0.35,0.039|
0.27,0.24,0.19,0.2,0.096|
];
transition_y3=[
0.1,0.21,0.23,0.42,0.029|
0.41,0.1,0.021,0.22,0.25|
0.21,0.2,0.11,0.25,0.24|
0.15,0.13,0.054,0.068,0.59|
0.034,0.31,0.24,0.32,0.096|
];
transition_y4=[
0.19,0.19,0.21,0.23,0.18|
0.22,0.049,0.3,0.15,0.28|
0.21,0.14,0.2,0.16,0.3|
0.048,0.27,0.17,0.23,0.28|
0.1,0.046,0.27,0.23,0.35|
];
